n_blocks=27;
chip_width=32;
widths=[3, 3, 3, 3, 3, 3, 3, 3, 3, 3, 3, 3, 3, 3, 3, 3, 3, 3, 3, 4, 4, 4, 4, 4, 4, 4, 4];
heights=[3, 4, 5, 6, 7, 8, 9, 10, 11, 12, 13, 14, 15, 18, 22, 23, 24, 25, 27, 3, 4, 5, 6, 7, 10, 11, 18];
search=1;
restart=2;
chip_max_height=88;
